LatticeConstant 1.0 Ang
%block LatticeVectors
 3.00000000 0.00000000 0.00000000
 0.00000000 3.00000000 0.00000000
0.00000000 0.00000000 20.40000000 # Z-vector
%endblock LatticeVectors

NumberOfAtoms 7
AtomicCoordinatesFormat Ang
%block AtomicCoordinatesAndAtomicSpecies
  1.50000000  1.50000000  1.45000000 1 # 1: Au
  1.50000000  1.50000000  4.35000000 1 # 2: Au
  1.50000000  1.50000000  7.25000000 1 # 3: Au
  1.50000000  1.50000000 10.15000000 1 # 4: Au
  1.50000000  1.50000000 13.05000000 1 # 5: Au
  1.50000000  1.50000000 15.95000000 1 # 6: Au
  1.50000000  1.50000000 18.85000000 1 # 7: Au
%endblock AtomicCoordinatesAndAtomicSpecies

NumberOfSpecies 1
%block ChemicalSpeciesLabel
 1 79 Au
%endblock ChemicalSpeciesLabel
